p cnf 91 377
3 19 23 -50 -68 -91 0
20 21 22 70 -72 88 0
4 19 23 -50 68 -91 0
1 2 24 -32 56 0
-3 -16 -19 -89 91 0
-3 -16 67 -68 -89 0
-3 -16 67 -89 91 0
-4 52 -61 -78 -84 0
7 9 46 -48 64 0
-8 42 46 -60 83 0
10 11 26 -27 34 0
10 11 26 -27 57 0
10 20 21 22 -72 0
11 -31 57 -76 -80 0
12 13 57 58 79 0
12 -31 57 -73 -78 0
12 57 58 -73 79 0
-19 -23 25 65 80 0
29 -30 57 58 -73 0
-38 41 53 -54 -70 0
2 -32 56 -61 -62 0
4 -49 -50 -51 -91 0
11 26 -28 -31 57 0
-17 22 -44 71 -72 0
-21 22 -69 -72 88 0
-22 69 70 -72 -88 0
1 -42 60 83 0
1 -42 -69 83 0
1 46 60 83 0
-2 -5 35 -65 0
-2 -5 -65 82 0
-3 16 51 -68 0
-3 51 67 91 0
4 78 82 -84 0
7 9 45 -48 0
-8 -10 -70 -83 0
-8 45 -46 -55 0
-8 -45 46 48 0
-9 -40 43 -44 0
10 12 -28 34 0
10 21 69 -77 0
12 13 -31 -79 0
-13 -49 -85 90 0
-14 -31 -73 78 0
-15 29 -30 58 0
-18 -19 -38 -64 0
-19 -23 -24 -59 0
-19 25 -27 34 0
-35 36 62 63 0
49 67 85 -86 0
49 67 -86 91 0
51 67 -68 -85 0
66 67 -86 -90 0
-2 19 -33 -65 0
-7 -8 -42 -60 0
-8 -42 60 -83 0
10 12 -28 57 0
11 26 -28 34 0
11 57 -76 -80 0
12 58 -73 -79 0
13 57 78 79 0
-13 68 90 -91 0
-16 -23 67 -89 0
-16 -50 -51 -89 0
-16 -50 68 -89 0
19 23 39 41 0
-19 -23 -79 84 0
22 41 71 -72 0
-22 -41 53 -72 0
29 57 -73 78 0
51 -68 -81 -85 0
1 2 5 0
1 42 -83 0
1 -43 -87 0
1 -69 70 0
-1 8 -36 0
-1 -32 -59 0
-1 -83 -88 0
2 6 -62 0
2 24 59 0
2 -24 -74 0
2 32 59 0
-2 -6 37 0
3 13 -51 0
3 -35 59 0
4 -6 61 0
4 -52 -82 0
4 -78 84 0
-4 -63 82 0
-5 52 -56 0
-5 52 62 0
-5 -52 62 0
-6 36 -63 0
7 8 55 0
8 -10 -70 0
-8 9 -87 0
-8 -9 -45 0
-8 -23 -88 0
-8 83 88 0
9 39 64 0
9 -47 -87 0
10 -12 -57 0
10 20 -70 0
-10 -24 -26 0
-11 -14 -15 0
-11 -15 80 0
12 32 34 0
-12 -29 73 0
-12 78 -79 0
13 49 57 0
13 49 85 0
-13 -19 86 0
-14 -15 76 0
-14 58 -76 0
-15 76 80 0
17 18 40 0
17 22 69 0
17 23 42 0
17 44 -71 0
-17 -21 -77 0
-17 44 77 0
18 39 60 0
18 47 64 0
-18 -19 42 0
-18 -47 -48 0
-18 -64 81 0
19 74 75 0
-19 20 -53 0
-19 -28 31 0
-19 56 59 0
-19 -70 72 0
20 -69 88 0
20 -70 71 0
-20 -22 53 0
-20 70 77 0
-22 41 -53 0
-22 70 -71 0
23 39 69 0
23 40 41 0
23 56 59 0
23 -74 75 0
-23 26 -34 0
-23 -26 -28 0
-23 -40 -60 0
-23 67 -85 0
-23 86 -89 0
24 35 -59 0
24 -35 37 0
25 27 34 0
25 29 33 0
25 32 -34 0
25 33 80 0
25 74 75 0
25 74 -75 0
25 75 76 0
25 -75 76 0
-25 -27 -33 0
-25 -65 74 0
-25 -76 -80 0
-26 28 31 0
27 -30 57 0
28 29 73 0
-29 -30 -73 0
32 -56 -61 0
-35 61 75 0
-35 -61 65 0
-36 37 63 0
38 54 72 0
-38 -39 -41 0
-39 -40 -43 0
40 43 45 0
45 48 55 0
-45 -53 70 0
-46 47 -64 0
-46 -47 64 0
49 67 68 0
49 85 -86 0
50 66 89 0
-50 66 89 0
51 67 68 0
51 -81 85 0
-60 -69 83 0
66 67 -90 0
-66 67 -90 0
-66 86 90 0
-66 86 -90 0
74 -75 -76 0
-74 -75 76 0
1 8 0
1 10 0
1 27 0
1 41 0
1 -83 0
-1 -2 0
-1 32 0
-1 74 0
-1 -90 0
2 65 0
-2 61 0
-2 78 0
3 -32 0
3 40 0
3 44 0
3 -56 0
3 -62 0
3 -91 0
-3 -4 0
-3 61 0
-3 66 0
-3 -66 0
4 23 0
4 -27 0
4 44 0
4 49 0
4 -49 0
4 51 0
4 -67 0
4 -68 0
-4 50 0
-4 70 0
-4 78 0
-4 84 0
5 -33 0
5 -52 0
5 -62 0
5 63 0
5 -78 0
5 -82 0
5 -84 0
-5 36 0
-5 61 0
-5 74 0
-5 84 0
6 -33 0
6 35 0
6 -36 0
6 -37 0
-6 -35 0
-6 52 0
-6 -59 0
-6 -65 0
-6 -74 0
7 -43 0
7 -47 0
7 50 0
7 -50 0
7 -89 0
-7 -45 0
-7 87 0
8 9 0
8 -13 0
8 -46 0
8 -53 0
8 -57 0
8 83 0
8 -88 0
-8 -23 0
-8 -39 0
-8 45 0
-8 54 0
9 -47 0
9 -55 0
-9 -44 0
-9 -46 0
10 22 0
10 -57 0
10 60 0
10 -60 0
10 -70 0
10 -72 0
10 -77 0
10 90 0
-10 -11 0
-10 -12 0
-10 14 0
-10 15 0
-10 24 0
-10 27 0
-10 28 0
-10 41 0
-10 83 0
-10 -88 0
11 14 0
11 27 0
11 58 0
11 -73 0
-11 -29 0
-11 31 0
12 -27 0
12 -80 0
12 -84 0
-12 -13 0
-12 31 0
-12 35 0
-12 -78 0
-12 -83 0
13 -31 0
13 58 0
13 -68 0
13 85 0
13 86 0
13 89 0
13 91 0
-13 28 0
-13 -54 0
-13 -67 0
14 31 0
14 -57 0
14 73 0
14 79 0
14 -79 0
-14 73 0
-14 -78 0
15 30 0
15 31 0
15 -57 0
15 -58 0
16 32 0
16 49 0
16 50 0
16 51 0
-16 -23 0
-16 -51 0
17 20 0
17 -40 0
17 -44 0
-17 18 0
-17 -18 0
-17 -40 0
-17 -58 0
18 21 0
18 41 0
18 42 0
18 54 0
18 69 0
-18 22 0
-18 -54 0
-18 -55 0
-18 -60 0
-18 81 0
19 -36 0
19 42 0
19 51 0
19 54 0
19 59 0
19 64 0
19 69 0
19 76 0
19 -76 0
-19 30 0
-19 -34 0
-19 36 0
-19 37 0
-19 -40 0
-19 -48 0
-19 -51 0
-19 -55 0
-19 -56 0
-19 -74 0
-19 -77 0
-19 -84 0
-19 -85 0
-19 -86 0
20 -38 0
20 39 0
20 54 0
20 71 0
20 -77 0
-20 -21 0
-20 72 0
21 23 0
21 38 0
21 -42 0
21 -77 0
21 88 0
21 -88 0
-21 -41 0
